!PBE0 aug-cc-pVTZ-J D3BJ CPCM(water) RIJCOSX AUTOAUX

%maxcore 4000

%pal
nprocs 104
end

*xyzfile -2 3 

%EPRNMR
        GTENSOR   TRUE
        NUCLEI    = ALL H,C,N,O,P,S {AISO, ADIP, AORB, fgrad, rho}
END
